20 90
0,1
0,3
0,5
0,6
0,7
0,9
0,11
0,15
0,16
0,19
1,0
1,9
1,10
1,13
1,14
1,15
1,17
1,18
1,19
2,4
2,5
2,9
2,10
2,11
2,12
3,0
3,5
3,7
3,10
3,11
3,13
3,15
3,16
3,18
3,19
4,2
4,5
4,6
4,9
4,10
4,12
4,13
4,14
4,15
4,17
4,18
4,19
5,0
5,2
5,3
5,4
5,6
5,8
5,9
5,10
5,12
5,18
6,0
6,4
6,5
6,12
6,13
6,14
6,15
6,18
6,19
7,0
7,3
7,8
7,14
7,16
7,17
7,18
8,5
8,7
8,9
8,10
8,11
8,12
9,0
9,1
9,2
9,4
9,5
9,8
9,10
9,11
9,13
9,15
9,18
9,19
10,1
10,2
10,3
10,4
10,5
10,8
10,9
10,17
10,18
10,19
11,0
11,2
11,3
11,8
11,9
11,12
11,14
11,17
12,2
12,4
12,5
12,6
12,8
12,11
12,16
12,17
12,19
13,1
13,3
13,4
13,6
13,9
13,14
13,16
13,17
14,1
14,4
14,6
14,7
14,11
14,13
14,15
14,17
14,18
14,19
15,0
15,1
15,3
15,4
15,6
15,9
15,14
16,0
16,3
16,7
16,12
16,13
16,19
17,1
17,4
17,7
17,10
17,11
17,12
17,13
17,14
17,19
18,1
18,3
18,4
18,5
18,6
18,7
18,9
18,10
18,14
18,19
19,0
19,1
19,3
19,4
19,6
19,9
19,10
19,12
19,14
19,16
19,17
19,18
