20 50
0,1
0,6
0,7
0,11
0,15
0,16
0,19
1,0
1,9
1,10
1,13
1,14
1,15
1,18
1,19
2,4
2,5
2,9
2,10
2,11
2,12
3,5
3,7
3,10
3,15
3,18
3,19
4,2
4,9
4,15
5,2
5,3
5,6
5,10
5,18
6,0
6,5
6,14
7,0
7,3
7,14
8,9
8,10
9,1
9,2
9,4
9,8
9,10
9,13
9,15
9,18
9,19
10,1
10,2
10,3
10,5
10,8
10,9
10,17
10,18
11,0
11,2
11,12
11,17
12,2
12,11
12,17
13,1
13,9
13,14
13,16
13,17
14,1
14,6
14,7
14,13
15,0
15,1
15,3
15,4
15,9
16,0
16,13
16,19
17,10
17,11
17,12
17,13
17,19
18,1
18,3
18,5
18,9
18,10
19,0
19,1
19,3
19,9
19,16
19,17
